c *********************************
c * Circuit generated by BenCGen
c *
c * Parity_28
c *
c * Ports with 1 gate(s): 1
c * Ports with 2 gate(s): 28
c * Total gates: 29
c *********************************
p cnf 57 113
1 31 0
-1 -31 0
1 -30 0
31 -30 0
-1 -31 30 0
1 2 -32 0
-1 2 32 0
1 -2 32 0
-1 -2 -32 0
3 4 -33 0
-3 4 33 0
3 -4 33 0
-3 -4 -33 0
5 6 -34 0
-5 6 34 0
5 -6 34 0
-5 -6 -34 0
7 8 -35 0
-7 8 35 0
7 -8 35 0
-7 -8 -35 0
9 10 -36 0
-9 10 36 0
9 -10 36 0
-9 -10 -36 0
11 12 -37 0
-11 12 37 0
11 -12 37 0
-11 -12 -37 0
13 14 -38 0
-13 14 38 0
13 -14 38 0
-13 -14 -38 0
15 16 -39 0
-15 16 39 0
15 -16 39 0
-15 -16 -39 0
17 18 -40 0
-17 18 40 0
17 -18 40 0
-17 -18 -40 0
19 20 -41 0
-19 20 41 0
19 -20 41 0
-19 -20 -41 0
21 22 -42 0
-21 22 42 0
21 -22 42 0
-21 -22 -42 0
23 24 -43 0
-23 24 43 0
23 -24 43 0
-23 -24 -43 0
25 26 -44 0
-25 26 44 0
25 -26 44 0
-25 -26 -44 0
27 28 -45 0
-27 28 45 0
27 -28 45 0
-27 -28 -45 0
32 33 -46 0
-32 33 46 0
32 -33 46 0
-32 -33 -46 0
34 35 -47 0
-34 35 47 0
34 -35 47 0
-34 -35 -47 0
36 37 -48 0
-36 37 48 0
36 -37 48 0
-36 -37 -48 0
38 39 -49 0
-38 39 49 0
38 -39 49 0
-38 -39 -49 0
40 41 -50 0
-40 41 50 0
40 -41 50 0
-40 -41 -50 0
42 43 -51 0
-42 43 51 0
42 -43 51 0
-42 -43 -51 0
44 45 -52 0
-44 45 52 0
44 -45 52 0
-44 -45 -52 0
46 47 -53 0
-46 47 53 0
46 -47 53 0
-46 -47 -53 0
48 49 -54 0
-48 49 54 0
48 -49 54 0
-48 -49 -54 0
50 51 -55 0
-50 51 55 0
50 -51 55 0
-50 -51 -55 0
53 54 -56 0
-53 54 56 0
53 -54 56 0
-53 -54 -56 0
55 52 -57 0
-55 52 57 0
55 -52 57 0
-55 -52 -57 0
56 57 -29 0
-56 57 29 0
56 -57 29 0
-56 -57 -29 0
